src/zimpl/lpfiles/knapsack50nr12.lp
\ This file was automatically generated by Zimpl
\ param file := "instances/knapsack50nr12.txt";
\ param n := read file as "1n" use 1 comment "#";
\ do print n;
\ param m := read file as "1n" skip 1 use 1 comment "#";
\ do print m;
\ param k := read file as "1n" skip 2 use 1 comment "#";
\ do print k;
\ set Items := {1 to n};
\ set Knapsacks := {1 to m};
\ set Capacities := {1 to k};
\ param p[Items] := read file as "1n" skip 3 use n comment "#";
\ param w[Items*Capacities] := read file as "n+" skip 3+n use n comment "#";
\ param c[Knapsacks*Capacities] := read file as "n+" skip 3+2*n use m comment "#";
\ var x[Knapsacks * Items] binary;
\ maximize profit: sum <i> in Knapsacks: sum <j> in Items: p[j]* x[i,j];
\ subto cap: forall <i> in Knapsacks: forall <h> in Capacities: sum <j> in Items: w[j,h]*x[i,j] <= c[i,h];
\ subto one: forall <j> in Items: sum <i> in Knapsacks: x[i,j] <= 1;
\Problem name: zimplfiles/knapsack50nr12.zpl
Maximize
 profit:  +879 x#1#1 +498 x#1#2 +9 x#1#3 +162 x#1#4 +988 x#1#5 +986 x#1#6
  +432 x#1#7 +542 x#1#8 +730 x#1#9 +34 x#1#10 +369 x#1#11 +421 x#1#12
  +267 x#1#13 +679 x#1#14 +481 x#1#15 +707 x#1#16 +549 x#1#17 +8 x#1#18
  +838 x#1#19 +604 x#1#20 +410 x#1#21 +165 x#1#22 +831 x#1#23 +39 x#1#24
  +502 x#1#25 +835 x#1#26 +267 x#1#27 +878 x#1#28 +668 x#1#29 +431 x#1#30
  +325 x#1#31 +343 x#1#32 +770 x#1#33 +387 x#1#34 +908 x#1#35 +475 x#1#36
  +529 x#1#37 +713 x#1#38 +273 x#1#39 +224 x#1#40 +810 x#1#41 +298 x#1#42
  +841 x#1#43 +444 x#1#44 +291 x#1#45 +266 x#1#46 +506 x#1#47 +137 x#1#48
  +448 x#1#49 +603 x#1#50 +879 x#2#1 +498 x#2#2 +9 x#2#3 +162 x#2#4
  +988 x#2#5 +986 x#2#6 +432 x#2#7 +542 x#2#8 +730 x#2#9 +34 x#2#10
  +369 x#2#11 +421 x#2#12 +267 x#2#13 +679 x#2#14 +481 x#2#15 +707 x#2#16
  +549 x#2#17 +8 x#2#18 +838 x#2#19 +604 x#2#20 +410 x#2#21 +165 x#2#22
  +831 x#2#23 +39 x#2#24 +502 x#2#25 +835 x#2#26 +267 x#2#27 +878 x#2#28
  +668 x#2#29 +431 x#2#30 +325 x#2#31 +343 x#2#32 +770 x#2#33 +387 x#2#34
  +908 x#2#35 +475 x#2#36 +529 x#2#37 +713 x#2#38 +273 x#2#39 +224 x#2#40
  +810 x#2#41 +298 x#2#42 +841 x#2#43 +444 x#2#44 +291 x#2#45 +266 x#2#46
  +506 x#2#47 +137 x#2#48 +448 x#2#49 +603 x#2#50 +879 x#3#1 +498 x#3#2
  +9 x#3#3 +162 x#3#4 +988 x#3#5 +986 x#3#6 +432 x#3#7 +542 x#3#8
  +730 x#3#9 +34 x#3#10 +369 x#3#11 +421 x#3#12 +267 x#3#13 +679 x#3#14
  +481 x#3#15 +707 x#3#16 +549 x#3#17 +8 x#3#18 +838 x#3#19 +604 x#3#20
  +410 x#3#21 +165 x#3#22 +831 x#3#23 +39 x#3#24 +502 x#3#25 +835 x#3#26
  +267 x#3#27 +878 x#3#28 +668 x#3#29 +431 x#3#30 +325 x#3#31 +343 x#3#32
  +770 x#3#33 +387 x#3#34 +908 x#3#35 +475 x#3#36 +529 x#3#37 +713 x#3#38
  +273 x#3#39 +224 x#3#40 +810 x#3#41 +298 x#3#42 +841 x#3#43 +444 x#3#44
  +291 x#3#45 +266 x#3#46 +506 x#3#47 +137 x#3#48 +448 x#3#49 +603 x#3#50
  +879 x#4#1 +498 x#4#2 +9 x#4#3 +162 x#4#4 +988 x#4#5 +986 x#4#6
  +432 x#4#7 +542 x#4#8 +730 x#4#9 +34 x#4#10 +369 x#4#11 +421 x#4#12
  +267 x#4#13 +679 x#4#14 +481 x#4#15 +707 x#4#16 +549 x#4#17 +8 x#4#18
  +838 x#4#19 +604 x#4#20 +410 x#4#21 +165 x#4#22 +831 x#4#23 +39 x#4#24
  +502 x#4#25 +835 x#4#26 +267 x#4#27 +878 x#4#28 +668 x#4#29 +431 x#4#30
  +325 x#4#31 +343 x#4#32 +770 x#4#33 +387 x#4#34 +908 x#4#35 +475 x#4#36
  +529 x#4#37 +713 x#4#38 +273 x#4#39 +224 x#4#40 +810 x#4#41 +298 x#4#42
  +841 x#4#43 +444 x#4#44 +291 x#4#45 +266 x#4#46 +506 x#4#47 +137 x#4#48
  +448 x#4#49 +603 x#4#50 +879 x#5#1 +498 x#5#2 +9 x#5#3 +162 x#5#4
  +988 x#5#5 +986 x#5#6 +432 x#5#7 +542 x#5#8 +730 x#5#9 +34 x#5#10
  +369 x#5#11 +421 x#5#12 +267 x#5#13 +679 x#5#14 +481 x#5#15 +707 x#5#16
  +549 x#5#17 +8 x#5#18 +838 x#5#19 +604 x#5#20 +410 x#5#21 +165 x#5#22
  +831 x#5#23 +39 x#5#24 +502 x#5#25 +835 x#5#26 +267 x#5#27 +878 x#5#28
  +668 x#5#29 +431 x#5#30 +325 x#5#31 +343 x#5#32 +770 x#5#33 +387 x#5#34
  +908 x#5#35 +475 x#5#36 +529 x#5#37 +713 x#5#38 +273 x#5#39 +224 x#5#40
  +810 x#5#41 +298 x#5#42 +841 x#5#43 +444 x#5#44 +291 x#5#45 +266 x#5#46
  +506 x#5#47 +137 x#5#48 +448 x#5#49 +603 x#5#50
Subject to
 cap_1:
  +927 x#1#50 +241 x#1#49 +589 x#1#48 +688 x#1#47 +379 x#1#46 +25 x#1#45
  +852 x#1#44 +985 x#1#43 +384 x#1#42 +669 x#1#41 +719 x#1#40 +470 x#1#39
  +726 x#1#38 +404 x#1#37 +218 x#1#36 +580 x#1#35 +42 x#1#34 +902 x#1#33
  +472 x#1#32 +618 x#1#31 +825 x#1#30 +49 x#1#29 +860 x#1#28 +590 x#1#27
  +615 x#1#26 +721 x#1#25 +611 x#1#24 +839 x#1#23 +776 x#1#22 +548 x#1#21
  +232 x#1#20 +132 x#1#19 +138 x#1#18 +269 x#1#17 +267 x#1#16 +755 x#1#15
  +388 x#1#14 +839 x#1#13 +711 x#1#12 +85 x#1#11 +896 x#1#10 +299 x#1#9
  +142 x#1#8 +502 x#1#7 +713 x#1#6 +620 x#1#5 +324 x#1#4 +346 x#1#3
  +569 x#1#2 +503 x#1#1 <= 2912
 cap_2:
  +751 x#1#50 +571 x#1#49 +86 x#1#48 +94 x#1#47 +359 x#1#46 +514 x#1#45
  +942 x#1#44 +203 x#1#43 +609 x#1#42 +420 x#1#41 +642 x#1#40 +316 x#1#39
  +662 x#1#38 +963 x#1#37 +815 x#1#36 +400 x#1#35 +590 x#1#34 +427 x#1#33
  +905 x#1#32 +347 x#1#31 +699 x#1#30 +906 x#1#29 +23 x#1#28 +883 x#1#27
  +667 x#1#26 +307 x#1#25 +973 x#1#24 +252 x#1#23 +946 x#1#22 +383 x#1#21
  +928 x#1#20 +745 x#1#19 +714 x#1#18 +105 x#1#17 +800 x#1#16 +968 x#1#15
  +553 x#1#14 +204 x#1#13 +871 x#1#12 +697 x#1#11 +194 x#1#10 +139 x#1#9
  +591 x#1#8 +603 x#1#7 +927 x#1#6 +253 x#1#5 +648 x#1#4 +884 x#1#3
  +699 x#1#2 +796 x#1#1 <= 2881
 cap_3:
  +927 x#2#50 +241 x#2#49 +589 x#2#48 +688 x#2#47 +379 x#2#46 +25 x#2#45
  +852 x#2#44 +985 x#2#43 +384 x#2#42 +669 x#2#41 +719 x#2#40 +470 x#2#39
  +726 x#2#38 +404 x#2#37 +218 x#2#36 +580 x#2#35 +42 x#2#34 +902 x#2#33
  +472 x#2#32 +618 x#2#31 +825 x#2#30 +49 x#2#29 +860 x#2#28 +590 x#2#27
  +615 x#2#26 +721 x#2#25 +611 x#2#24 +839 x#2#23 +776 x#2#22 +548 x#2#21
  +232 x#2#20 +132 x#2#19 +138 x#2#18 +269 x#2#17 +267 x#2#16 +755 x#2#15
  +388 x#2#14 +839 x#2#13 +711 x#2#12 +85 x#2#11 +896 x#2#10 +299 x#2#9
  +142 x#2#8 +502 x#2#7 +713 x#2#6 +620 x#2#5 +324 x#2#4 +346 x#2#3
  +569 x#2#2 +503 x#2#1 <= 3021
 cap_4:
  +751 x#2#50 +571 x#2#49 +86 x#2#48 +94 x#2#47 +359 x#2#46 +514 x#2#45
  +942 x#2#44 +203 x#2#43 +609 x#2#42 +420 x#2#41 +642 x#2#40 +316 x#2#39
  +662 x#2#38 +963 x#2#37 +815 x#2#36 +400 x#2#35 +590 x#2#34 +427 x#2#33
  +905 x#2#32 +347 x#2#31 +699 x#2#30 +906 x#2#29 +23 x#2#28 +883 x#2#27
  +667 x#2#26 +307 x#2#25 +973 x#2#24 +252 x#2#23 +946 x#2#22 +383 x#2#21
  +928 x#2#20 +745 x#2#19 +714 x#2#18 +105 x#2#17 +800 x#2#16 +968 x#2#15
  +553 x#2#14 +204 x#2#13 +871 x#2#12 +697 x#2#11 +194 x#2#10 +139 x#2#9
  +591 x#2#8 +603 x#2#7 +927 x#2#6 +253 x#2#5 +648 x#2#4 +884 x#2#3
  +699 x#2#2 +796 x#2#1 <= 3270
 cap_5:
  +927 x#3#50 +241 x#3#49 +589 x#3#48 +688 x#3#47 +379 x#3#46 +25 x#3#45
  +852 x#3#44 +985 x#3#43 +384 x#3#42 +669 x#3#41 +719 x#3#40 +470 x#3#39
  +726 x#3#38 +404 x#3#37 +218 x#3#36 +580 x#3#35 +42 x#3#34 +902 x#3#33
  +472 x#3#32 +618 x#3#31 +825 x#3#30 +49 x#3#29 +860 x#3#28 +590 x#3#27
  +615 x#3#26 +721 x#3#25 +611 x#3#24 +839 x#3#23 +776 x#3#22 +548 x#3#21
  +232 x#3#20 +132 x#3#19 +138 x#3#18 +269 x#3#17 +267 x#3#16 +755 x#3#15
  +388 x#3#14 +839 x#3#13 +711 x#3#12 +85 x#3#11 +896 x#3#10 +299 x#3#9
  +142 x#3#8 +502 x#3#7 +713 x#3#6 +620 x#3#5 +324 x#3#4 +346 x#3#3
  +569 x#3#2 +503 x#3#1 <= 2381
 cap_6:
  +751 x#3#50 +571 x#3#49 +86 x#3#48 +94 x#3#47 +359 x#3#46 +514 x#3#45
  +942 x#3#44 +203 x#3#43 +609 x#3#42 +420 x#3#41 +642 x#3#40 +316 x#3#39
  +662 x#3#38 +963 x#3#37 +815 x#3#36 +400 x#3#35 +590 x#3#34 +427 x#3#33
  +905 x#3#32 +347 x#3#31 +699 x#3#30 +906 x#3#29 +23 x#3#28 +883 x#3#27
  +667 x#3#26 +307 x#3#25 +973 x#3#24 +252 x#3#23 +946 x#3#22 +383 x#3#21
  +928 x#3#20 +745 x#3#19 +714 x#3#18 +105 x#3#17 +800 x#3#16 +968 x#3#15
  +553 x#3#14 +204 x#3#13 +871 x#3#12 +697 x#3#11 +194 x#3#10 +139 x#3#9
  +591 x#3#8 +603 x#3#7 +927 x#3#6 +253 x#3#5 +648 x#3#4 +884 x#3#3
  +699 x#3#2 +796 x#3#1 <= 2871
 cap_7:
  +927 x#4#50 +241 x#4#49 +589 x#4#48 +688 x#4#47 +379 x#4#46 +25 x#4#45
  +852 x#4#44 +985 x#4#43 +384 x#4#42 +669 x#4#41 +719 x#4#40 +470 x#4#39
  +726 x#4#38 +404 x#4#37 +218 x#4#36 +580 x#4#35 +42 x#4#34 +902 x#4#33
  +472 x#4#32 +618 x#4#31 +825 x#4#30 +49 x#4#29 +860 x#4#28 +590 x#4#27
  +615 x#4#26 +721 x#4#25 +611 x#4#24 +839 x#4#23 +776 x#4#22 +548 x#4#21
  +232 x#4#20 +132 x#4#19 +138 x#4#18 +269 x#4#17 +267 x#4#16 +755 x#4#15
  +388 x#4#14 +839 x#4#13 +711 x#4#12 +85 x#4#11 +896 x#4#10 +299 x#4#9
  +142 x#4#8 +502 x#4#7 +713 x#4#6 +620 x#4#5 +324 x#4#4 +346 x#4#3
  +569 x#4#2 +503 x#4#1 <= 2193
 cap_8:
  +751 x#4#50 +571 x#4#49 +86 x#4#48 +94 x#4#47 +359 x#4#46 +514 x#4#45
  +942 x#4#44 +203 x#4#43 +609 x#4#42 +420 x#4#41 +642 x#4#40 +316 x#4#39
  +662 x#4#38 +963 x#4#37 +815 x#4#36 +400 x#4#35 +590 x#4#34 +427 x#4#33
  +905 x#4#32 +347 x#4#31 +699 x#4#30 +906 x#4#29 +23 x#4#28 +883 x#4#27
  +667 x#4#26 +307 x#4#25 +973 x#4#24 +252 x#4#23 +946 x#4#22 +383 x#4#21
  +928 x#4#20 +745 x#4#19 +714 x#4#18 +105 x#4#17 +800 x#4#16 +968 x#4#15
  +553 x#4#14 +204 x#4#13 +871 x#4#12 +697 x#4#11 +194 x#4#10 +139 x#4#9
  +591 x#4#8 +603 x#4#7 +927 x#4#6 +253 x#4#5 +648 x#4#4 +884 x#4#3
  +699 x#4#2 +796 x#4#1 <= 3093
 cap_9:
  +927 x#5#50 +241 x#5#49 +589 x#5#48 +688 x#5#47 +379 x#5#46 +25 x#5#45
  +852 x#5#44 +985 x#5#43 +384 x#5#42 +669 x#5#41 +719 x#5#40 +470 x#5#39
  +726 x#5#38 +404 x#5#37 +218 x#5#36 +580 x#5#35 +42 x#5#34 +902 x#5#33
  +472 x#5#32 +618 x#5#31 +825 x#5#30 +49 x#5#29 +860 x#5#28 +590 x#5#27
  +615 x#5#26 +721 x#5#25 +611 x#5#24 +839 x#5#23 +776 x#5#22 +548 x#5#21
  +232 x#5#20 +132 x#5#19 +138 x#5#18 +269 x#5#17 +267 x#5#16 +755 x#5#15
  +388 x#5#14 +839 x#5#13 +711 x#5#12 +85 x#5#11 +896 x#5#10 +299 x#5#9
  +142 x#5#8 +502 x#5#7 +713 x#5#6 +620 x#5#5 +324 x#5#4 +346 x#5#3
  +569 x#5#2 +503 x#5#1 <= 7774
 cap_10:
  +751 x#5#50 +571 x#5#49 +86 x#5#48 +94 x#5#47 +359 x#5#46 +514 x#5#45
  +942 x#5#44 +203 x#5#43 +609 x#5#42 +420 x#5#41 +642 x#5#40 +316 x#5#39
  +662 x#5#38 +963 x#5#37 +815 x#5#36 +400 x#5#35 +590 x#5#34 +427 x#5#33
  +905 x#5#32 +347 x#5#31 +699 x#5#30 +906 x#5#29 +23 x#5#28 +883 x#5#27
  +667 x#5#26 +307 x#5#25 +973 x#5#24 +252 x#5#23 +946 x#5#22 +383 x#5#21
  +928 x#5#20 +745 x#5#19 +714 x#5#18 +105 x#5#17 +800 x#5#16 +968 x#5#15
  +553 x#5#14 +204 x#5#13 +871 x#5#12 +697 x#5#11 +194 x#5#10 +139 x#5#9
  +591 x#5#8 +603 x#5#7 +927 x#5#6 +253 x#5#5 +648 x#5#4 +884 x#5#3
  +699 x#5#2 +796 x#5#1 <= 8430
 one_1:
  + x#5#1 + x#4#1 + x#3#1 + x#2#1 + x#1#1 <= 1
 one_2:
  + x#5#2 + x#4#2 + x#3#2 + x#2#2 + x#1#2 <= 1
 one_3:
  + x#5#3 + x#4#3 + x#3#3 + x#2#3 + x#1#3 <= 1
 one_4:
  + x#5#4 + x#4#4 + x#3#4 + x#2#4 + x#1#4 <= 1
 one_5:
  + x#5#5 + x#4#5 + x#3#5 + x#2#5 + x#1#5 <= 1
 one_6:
  + x#5#6 + x#4#6 + x#3#6 + x#2#6 + x#1#6 <= 1
 one_7:
  + x#5#7 + x#4#7 + x#3#7 + x#2#7 + x#1#7 <= 1
 one_8:
  + x#5#8 + x#4#8 + x#3#8 + x#2#8 + x#1#8 <= 1
 one_9:
  + x#5#9 + x#4#9 + x#3#9 + x#2#9 + x#1#9 <= 1
 one_10:
  + x#5#10 + x#4#10 + x#3#10 + x#2#10 + x#1#10 <= 1
 one_11:
  + x#5#11 + x#4#11 + x#3#11 + x#2#11 + x#1#11 <= 1
 one_12:
  + x#5#12 + x#4#12 + x#3#12 + x#2#12 + x#1#12 <= 1
 one_13:
  + x#5#13 + x#4#13 + x#3#13 + x#2#13 + x#1#13 <= 1
 one_14:
  + x#5#14 + x#4#14 + x#3#14 + x#2#14 + x#1#14 <= 1
 one_15:
  + x#5#15 + x#4#15 + x#3#15 + x#2#15 + x#1#15 <= 1
 one_16:
  + x#5#16 + x#4#16 + x#3#16 + x#2#16 + x#1#16 <= 1
 one_17:
  + x#5#17 + x#4#17 + x#3#17 + x#2#17 + x#1#17 <= 1
 one_18:
  + x#5#18 + x#4#18 + x#3#18 + x#2#18 + x#1#18 <= 1
 one_19:
  + x#5#19 + x#4#19 + x#3#19 + x#2#19 + x#1#19 <= 1
 one_20:
  + x#5#20 + x#4#20 + x#3#20 + x#2#20 + x#1#20 <= 1
 one_21:
  + x#5#21 + x#4#21 + x#3#21 + x#2#21 + x#1#21 <= 1
 one_22:
  + x#5#22 + x#4#22 + x#3#22 + x#2#22 + x#1#22 <= 1
 one_23:
  + x#5#23 + x#4#23 + x#3#23 + x#2#23 + x#1#23 <= 1
 one_24:
  + x#5#24 + x#4#24 + x#3#24 + x#2#24 + x#1#24 <= 1
 one_25:
  + x#5#25 + x#4#25 + x#3#25 + x#2#25 + x#1#25 <= 1
 one_26:
  + x#5#26 + x#4#26 + x#3#26 + x#2#26 + x#1#26 <= 1
 one_27:
  + x#5#27 + x#4#27 + x#3#27 + x#2#27 + x#1#27 <= 1
 one_28:
  + x#5#28 + x#4#28 + x#3#28 + x#2#28 + x#1#28 <= 1
 one_29:
  + x#5#29 + x#4#29 + x#3#29 + x#2#29 + x#1#29 <= 1
 one_30:
  + x#5#30 + x#4#30 + x#3#30 + x#2#30 + x#1#30 <= 1
 one_31:
  + x#5#31 + x#4#31 + x#3#31 + x#2#31 + x#1#31 <= 1
 one_32:
  + x#5#32 + x#4#32 + x#3#32 + x#2#32 + x#1#32 <= 1
 one_33:
  + x#5#33 + x#4#33 + x#3#33 + x#2#33 + x#1#33 <= 1
 one_34:
  + x#5#34 + x#4#34 + x#3#34 + x#2#34 + x#1#34 <= 1
 one_35:
  + x#5#35 + x#4#35 + x#3#35 + x#2#35 + x#1#35 <= 1
 one_36:
  + x#5#36 + x#4#36 + x#3#36 + x#2#36 + x#1#36 <= 1
 one_37:
  + x#5#37 + x#4#37 + x#3#37 + x#2#37 + x#1#37 <= 1
 one_38:
  + x#5#38 + x#4#38 + x#3#38 + x#2#38 + x#1#38 <= 1
 one_39:
  + x#5#39 + x#4#39 + x#3#39 + x#2#39 + x#1#39 <= 1
 one_40:
  + x#5#40 + x#4#40 + x#3#40 + x#2#40 + x#1#40 <= 1
 one_41:
  + x#5#41 + x#4#41 + x#3#41 + x#2#41 + x#1#41 <= 1
 one_42:
  + x#5#42 + x#4#42 + x#3#42 + x#2#42 + x#1#42 <= 1
 one_43:
  + x#5#43 + x#4#43 + x#3#43 + x#2#43 + x#1#43 <= 1
 one_44:
  + x#5#44 + x#4#44 + x#3#44 + x#2#44 + x#1#44 <= 1
 one_45:
  + x#5#45 + x#4#45 + x#3#45 + x#2#45 + x#1#45 <= 1
 one_46:
  + x#5#46 + x#4#46 + x#3#46 + x#2#46 + x#1#46 <= 1
 one_47:
  + x#5#47 + x#4#47 + x#3#47 + x#2#47 + x#1#47 <= 1
 one_48:
  + x#5#48 + x#4#48 + x#3#48 + x#2#48 + x#1#48 <= 1
 one_49:
  + x#5#49 + x#4#49 + x#3#49 + x#2#49 + x#1#49 <= 1
 one_50:
  + x#5#50 + x#4#50 + x#3#50 + x#2#50 + x#1#50 <= 1
Bounds
 0 <= x#1#1 <= 1
 0 <= x#1#2 <= 1
 0 <= x#1#3 <= 1
 0 <= x#1#4 <= 1
 0 <= x#1#5 <= 1
 0 <= x#1#6 <= 1
 0 <= x#1#7 <= 1
 0 <= x#1#8 <= 1
 0 <= x#1#9 <= 1
 0 <= x#1#10 <= 1
 0 <= x#1#11 <= 1
 0 <= x#1#12 <= 1
 0 <= x#1#13 <= 1
 0 <= x#1#14 <= 1
 0 <= x#1#15 <= 1
 0 <= x#1#16 <= 1
 0 <= x#1#17 <= 1
 0 <= x#1#18 <= 1
 0 <= x#1#19 <= 1
 0 <= x#1#20 <= 1
 0 <= x#1#21 <= 1
 0 <= x#1#22 <= 1
 0 <= x#1#23 <= 1
 0 <= x#1#24 <= 1
 0 <= x#1#25 <= 1
 0 <= x#1#26 <= 1
 0 <= x#1#27 <= 1
 0 <= x#1#28 <= 1
 0 <= x#1#29 <= 1
 0 <= x#1#30 <= 1
 0 <= x#1#31 <= 1
 0 <= x#1#32 <= 1
 0 <= x#1#33 <= 1
 0 <= x#1#34 <= 1
 0 <= x#1#35 <= 1
 0 <= x#1#36 <= 1
 0 <= x#1#37 <= 1
 0 <= x#1#38 <= 1
 0 <= x#1#39 <= 1
 0 <= x#1#40 <= 1
 0 <= x#1#41 <= 1
 0 <= x#1#42 <= 1
 0 <= x#1#43 <= 1
 0 <= x#1#44 <= 1
 0 <= x#1#45 <= 1
 0 <= x#1#46 <= 1
 0 <= x#1#47 <= 1
 0 <= x#1#48 <= 1
 0 <= x#1#49 <= 1
 0 <= x#1#50 <= 1
 0 <= x#2#1 <= 1
 0 <= x#2#2 <= 1
 0 <= x#2#3 <= 1
 0 <= x#2#4 <= 1
 0 <= x#2#5 <= 1
 0 <= x#2#6 <= 1
 0 <= x#2#7 <= 1
 0 <= x#2#8 <= 1
 0 <= x#2#9 <= 1
 0 <= x#2#10 <= 1
 0 <= x#2#11 <= 1
 0 <= x#2#12 <= 1
 0 <= x#2#13 <= 1
 0 <= x#2#14 <= 1
 0 <= x#2#15 <= 1
 0 <= x#2#16 <= 1
 0 <= x#2#17 <= 1
 0 <= x#2#18 <= 1
 0 <= x#2#19 <= 1
 0 <= x#2#20 <= 1
 0 <= x#2#21 <= 1
 0 <= x#2#22 <= 1
 0 <= x#2#23 <= 1
 0 <= x#2#24 <= 1
 0 <= x#2#25 <= 1
 0 <= x#2#26 <= 1
 0 <= x#2#27 <= 1
 0 <= x#2#28 <= 1
 0 <= x#2#29 <= 1
 0 <= x#2#30 <= 1
 0 <= x#2#31 <= 1
 0 <= x#2#32 <= 1
 0 <= x#2#33 <= 1
 0 <= x#2#34 <= 1
 0 <= x#2#35 <= 1
 0 <= x#2#36 <= 1
 0 <= x#2#37 <= 1
 0 <= x#2#38 <= 1
 0 <= x#2#39 <= 1
 0 <= x#2#40 <= 1
 0 <= x#2#41 <= 1
 0 <= x#2#42 <= 1
 0 <= x#2#43 <= 1
 0 <= x#2#44 <= 1
 0 <= x#2#45 <= 1
 0 <= x#2#46 <= 1
 0 <= x#2#47 <= 1
 0 <= x#2#48 <= 1
 0 <= x#2#49 <= 1
 0 <= x#2#50 <= 1
 0 <= x#3#1 <= 1
 0 <= x#3#2 <= 1
 0 <= x#3#3 <= 1
 0 <= x#3#4 <= 1
 0 <= x#3#5 <= 1
 0 <= x#3#6 <= 1
 0 <= x#3#7 <= 1
 0 <= x#3#8 <= 1
 0 <= x#3#9 <= 1
 0 <= x#3#10 <= 1
 0 <= x#3#11 <= 1
 0 <= x#3#12 <= 1
 0 <= x#3#13 <= 1
 0 <= x#3#14 <= 1
 0 <= x#3#15 <= 1
 0 <= x#3#16 <= 1
 0 <= x#3#17 <= 1
 0 <= x#3#18 <= 1
 0 <= x#3#19 <= 1
 0 <= x#3#20 <= 1
 0 <= x#3#21 <= 1
 0 <= x#3#22 <= 1
 0 <= x#3#23 <= 1
 0 <= x#3#24 <= 1
 0 <= x#3#25 <= 1
 0 <= x#3#26 <= 1
 0 <= x#3#27 <= 1
 0 <= x#3#28 <= 1
 0 <= x#3#29 <= 1
 0 <= x#3#30 <= 1
 0 <= x#3#31 <= 1
 0 <= x#3#32 <= 1
 0 <= x#3#33 <= 1
 0 <= x#3#34 <= 1
 0 <= x#3#35 <= 1
 0 <= x#3#36 <= 1
 0 <= x#3#37 <= 1
 0 <= x#3#38 <= 1
 0 <= x#3#39 <= 1
 0 <= x#3#40 <= 1
 0 <= x#3#41 <= 1
 0 <= x#3#42 <= 1
 0 <= x#3#43 <= 1
 0 <= x#3#44 <= 1
 0 <= x#3#45 <= 1
 0 <= x#3#46 <= 1
 0 <= x#3#47 <= 1
 0 <= x#3#48 <= 1
 0 <= x#3#49 <= 1
 0 <= x#3#50 <= 1
 0 <= x#4#1 <= 1
 0 <= x#4#2 <= 1
 0 <= x#4#3 <= 1
 0 <= x#4#4 <= 1
 0 <= x#4#5 <= 1
 0 <= x#4#6 <= 1
 0 <= x#4#7 <= 1
 0 <= x#4#8 <= 1
 0 <= x#4#9 <= 1
 0 <= x#4#10 <= 1
 0 <= x#4#11 <= 1
 0 <= x#4#12 <= 1
 0 <= x#4#13 <= 1
 0 <= x#4#14 <= 1
 0 <= x#4#15 <= 1
 0 <= x#4#16 <= 1
 0 <= x#4#17 <= 1
 0 <= x#4#18 <= 1
 0 <= x#4#19 <= 1
 0 <= x#4#20 <= 1
 0 <= x#4#21 <= 1
 0 <= x#4#22 <= 1
 0 <= x#4#23 <= 1
 0 <= x#4#24 <= 1
 0 <= x#4#25 <= 1
 0 <= x#4#26 <= 1
 0 <= x#4#27 <= 1
 0 <= x#4#28 <= 1
 0 <= x#4#29 <= 1
 0 <= x#4#30 <= 1
 0 <= x#4#31 <= 1
 0 <= x#4#32 <= 1
 0 <= x#4#33 <= 1
 0 <= x#4#34 <= 1
 0 <= x#4#35 <= 1
 0 <= x#4#36 <= 1
 0 <= x#4#37 <= 1
 0 <= x#4#38 <= 1
 0 <= x#4#39 <= 1
 0 <= x#4#40 <= 1
 0 <= x#4#41 <= 1
 0 <= x#4#42 <= 1
 0 <= x#4#43 <= 1
 0 <= x#4#44 <= 1
 0 <= x#4#45 <= 1
 0 <= x#4#46 <= 1
 0 <= x#4#47 <= 1
 0 <= x#4#48 <= 1
 0 <= x#4#49 <= 1
 0 <= x#4#50 <= 1
 0 <= x#5#1 <= 1
 0 <= x#5#2 <= 1
 0 <= x#5#3 <= 1
 0 <= x#5#4 <= 1
 0 <= x#5#5 <= 1
 0 <= x#5#6 <= 1
 0 <= x#5#7 <= 1
 0 <= x#5#8 <= 1
 0 <= x#5#9 <= 1
 0 <= x#5#10 <= 1
 0 <= x#5#11 <= 1
 0 <= x#5#12 <= 1
 0 <= x#5#13 <= 1
 0 <= x#5#14 <= 1
 0 <= x#5#15 <= 1
 0 <= x#5#16 <= 1
 0 <= x#5#17 <= 1
 0 <= x#5#18 <= 1
 0 <= x#5#19 <= 1
 0 <= x#5#20 <= 1
 0 <= x#5#21 <= 1
 0 <= x#5#22 <= 1
 0 <= x#5#23 <= 1
 0 <= x#5#24 <= 1
 0 <= x#5#25 <= 1
 0 <= x#5#26 <= 1
 0 <= x#5#27 <= 1
 0 <= x#5#28 <= 1
 0 <= x#5#29 <= 1
 0 <= x#5#30 <= 1
 0 <= x#5#31 <= 1
 0 <= x#5#32 <= 1
 0 <= x#5#33 <= 1
 0 <= x#5#34 <= 1
 0 <= x#5#35 <= 1
 0 <= x#5#36 <= 1
 0 <= x#5#37 <= 1
 0 <= x#5#38 <= 1
 0 <= x#5#39 <= 1
 0 <= x#5#40 <= 1
 0 <= x#5#41 <= 1
 0 <= x#5#42 <= 1
 0 <= x#5#43 <= 1
 0 <= x#5#44 <= 1
 0 <= x#5#45 <= 1
 0 <= x#5#46 <= 1
 0 <= x#5#47 <= 1
 0 <= x#5#48 <= 1
 0 <= x#5#49 <= 1
 0 <= x#5#50 <= 1
General
 x#1#1
 x#1#2
 x#1#3
 x#1#4
 x#1#5
 x#1#6
 x#1#7
 x#1#8
 x#1#9
 x#1#10
 x#1#11
 x#1#12
 x#1#13
 x#1#14
 x#1#15
 x#1#16
 x#1#17
 x#1#18
 x#1#19
 x#1#20
 x#1#21
 x#1#22
 x#1#23
 x#1#24
 x#1#25
 x#1#26
 x#1#27
 x#1#28
 x#1#29
 x#1#30
 x#1#31
 x#1#32
 x#1#33
 x#1#34
 x#1#35
 x#1#36
 x#1#37
 x#1#38
 x#1#39
 x#1#40
 x#1#41
 x#1#42
 x#1#43
 x#1#44
 x#1#45
 x#1#46
 x#1#47
 x#1#48
 x#1#49
 x#1#50
 x#2#1
 x#2#2
 x#2#3
 x#2#4
 x#2#5
 x#2#6
 x#2#7
 x#2#8
 x#2#9
 x#2#10
 x#2#11
 x#2#12
 x#2#13
 x#2#14
 x#2#15
 x#2#16
 x#2#17
 x#2#18
 x#2#19
 x#2#20
 x#2#21
 x#2#22
 x#2#23
 x#2#24
 x#2#25
 x#2#26
 x#2#27
 x#2#28
 x#2#29
 x#2#30
 x#2#31
 x#2#32
 x#2#33
 x#2#34
 x#2#35
 x#2#36
 x#2#37
 x#2#38
 x#2#39
 x#2#40
 x#2#41
 x#2#42
 x#2#43
 x#2#44
 x#2#45
 x#2#46
 x#2#47
 x#2#48
 x#2#49
 x#2#50
 x#3#1
 x#3#2
 x#3#3
 x#3#4
 x#3#5
 x#3#6
 x#3#7
 x#3#8
 x#3#9
 x#3#10
 x#3#11
 x#3#12
 x#3#13
 x#3#14
 x#3#15
 x#3#16
 x#3#17
 x#3#18
 x#3#19
 x#3#20
 x#3#21
 x#3#22
 x#3#23
 x#3#24
 x#3#25
 x#3#26
 x#3#27
 x#3#28
 x#3#29
 x#3#30
 x#3#31
 x#3#32
 x#3#33
 x#3#34
 x#3#35
 x#3#36
 x#3#37
 x#3#38
 x#3#39
 x#3#40
 x#3#41
 x#3#42
 x#3#43
 x#3#44
 x#3#45
 x#3#46
 x#3#47
 x#3#48
 x#3#49
 x#3#50
 x#4#1
 x#4#2
 x#4#3
 x#4#4
 x#4#5
 x#4#6
 x#4#7
 x#4#8
 x#4#9
 x#4#10
 x#4#11
 x#4#12
 x#4#13
 x#4#14
 x#4#15
 x#4#16
 x#4#17
 x#4#18
 x#4#19
 x#4#20
 x#4#21
 x#4#22
 x#4#23
 x#4#24
 x#4#25
 x#4#26
 x#4#27
 x#4#28
 x#4#29
 x#4#30
 x#4#31
 x#4#32
 x#4#33
 x#4#34
 x#4#35
 x#4#36
 x#4#37
 x#4#38
 x#4#39
 x#4#40
 x#4#41
 x#4#42
 x#4#43
 x#4#44
 x#4#45
 x#4#46
 x#4#47
 x#4#48
 x#4#49
 x#4#50
 x#5#1
 x#5#2
 x#5#3
 x#5#4
 x#5#5
 x#5#6
 x#5#7
 x#5#8
 x#5#9
 x#5#10
 x#5#11
 x#5#12
 x#5#13
 x#5#14
 x#5#15
 x#5#16
 x#5#17
 x#5#18
 x#5#19
 x#5#20
 x#5#21
 x#5#22
 x#5#23
 x#5#24
 x#5#25
 x#5#26
 x#5#27
 x#5#28
 x#5#29
 x#5#30
 x#5#31
 x#5#32
 x#5#33
 x#5#34
 x#5#35
 x#5#36
 x#5#37
 x#5#38
 x#5#39
 x#5#40
 x#5#41
 x#5#42
 x#5#43
 x#5#44
 x#5#45
 x#5#46
 x#5#47
 x#5#48
 x#5#49
 x#5#50
End
